NAME:  br17
TYPE: ATSP
COMMENT: 17 city problem (Repetto)
DIMENSION:  17
EDGE_WEIGHT_TYPE: EXPLICIT
EDGE_WEIGHT_FORMAT: FULL_MATRIX
EDGE_WEIGHT_SECTION
 0 10 10 10 10 10 10 10 10  1
 1  0 10 48 48  8  8  5  5 10
10  1  0 10 72 48 48 24 24  3
10 10  1  0 10  6  6 12 12 48
10 48 74  1  0 10  6 12 12 48
10  8 50  6  1  0 10  8  8  8
10  8 50  6  6  1  0 10  8  8
10  5 26 12 12  8  1  0 10  5
10  5 26 12 12  8  8  1  0 10
10 10  3 48 48  8  8  5  1  0
 